letting input=[64,61,34,1,77,47,38,59,22,65,74,30,52,79,76,31,47,74,14,89,54,80,16,9,6,20,15,51,9,81,39,63,43,27,8,56,71,11,46,14,90,38,63,73,89]
letting output=[50,49,45,42,44,6,12,22,46,32,40,9,43,9,19,11,15,37,50,37,45,41,46,50,29]
letting MAX_OPS=356
letting num_registers=0
